data/lp_files/pEFS/43_0.lp
\ Model foo
\ LP format - for model browsing. Use MPS format to capture full model detail.
Minimize
  z
Subject To
 allocateEach[1]: x[1,1] + x[2,1] + x[3,1] = 1
 allocateEach[2]: x[1,2] + x[2,2] + x[3,2] = 1
 allocateEach[3]: x[1,3] + x[2,3] + x[3,3] = 1
 allocateAllCash: cashProportion[1] + cashProportion[2] + cashProportion[3]
   = 1
 findWorstP[1,2]: z + 0.0203384315001627 cashProportion[1]
   - 0.0203384315001627 cashProportion[2] + 0.3871623820370973 x[1,1]
   + 0.3572242108688577 x[1,2] + 0.2352749755938822 x[1,3]
   - 0.3871623820370973 x[2,1] - 0.3572242108688577 x[2,2]
   - 0.2352749755938822 x[2,3] >= 0
 findWorstP[1,3]: z + 0.0203384315001627 cashProportion[1]
   - 0.0203384315001627 cashProportion[3] + 0.3871623820370973 x[1,1]
   + 0.3572242108688577 x[1,2] + 0.2352749755938822 x[1,3]
   - 0.3871623820370973 x[3,1] - 0.3572242108688577 x[3,2]
   - 0.2352749755938822 x[3,3] >= 0
 findWorstP[2,1]: z - 0.0282167042889391 cashProportion[1]
   + 0.0282167042889391 cashProportion[2] - 0.0144469525959368 x[1,1]
   - 0.4884875846501129 x[1,2] - 0.4688487584650113 x[1,3]
   + 0.0144469525959368 x[2,1] + 0.4884875846501129 x[2,2]
   + 0.4688487584650113 x[2,3] >= 0
 findWorstP[2,3]: z + 0.0282167042889391 cashProportion[2]
   - 0.0282167042889391 cashProportion[3] + 0.0144469525959368 x[2,1]
   + 0.4884875846501129 x[2,2] + 0.4688487584650113 x[2,3]
   - 0.0144469525959368 x[3,1] - 0.4884875846501129 x[3,2]
   - 0.4688487584650113 x[3,3] >= 0
 findWorstP[3,1]: z - 0.0332225913621262 cashProportion[1]
   + 0.0332225913621262 cashProportion[3] - 0.2409966777408638 x[1,1]
   - 0.4245182724252491 x[1,2] - 0.3012624584717608 x[1,3]
   + 0.2409966777408638 x[3,1] + 0.4245182724252491 x[3,2]
   + 0.3012624584717608 x[3,3] >= 0
 findWorstP[3,2]: z - 0.0332225913621262 cashProportion[2]
   + 0.0332225913621262 cashProportion[3] - 0.2409966777408638 x[2,1]
   - 0.4245182724252491 x[2,2] - 0.3012624584717608 x[2,3]
   + 0.2409966777408638 x[3,1] + 0.4245182724252491 x[3,2]
   + 0.3012624584717608 x[3,3] >= 0
Bounds
 z <= 1
 -infinity <= cashProportion[1] <= 1
 -infinity <= cashProportion[2] <= 1
 -infinity <= cashProportion[3] <= 1
Binaries
 x[1,1] x[1,2] x[1,3] x[2,1] x[2,2] x[2,3] x[3,1] x[3,2] x[3,3]
End
